20190630 117000.00 116500.00
20171231 117000.00 103900.00
20171120 116951.69 104297.23
20161231 104297.23 103868.81
20160630 104297.23 103868.81
20160518 104297.23 103868.81
20150630 37249.01 34750.03
